(set-logic QF_S)
(declare-fun var0 () String)
(assert (RegexIn var0 (RegexConcat (RegexUnion (RegexPlus (Str2Reg "000")) (RegexPlus (Str2Reg "1"))) (RegexConcat (RegexStar (RegexStar (Str2Reg "2"))) (RegexConcat (RegexPlus (RegexStar (Str2Reg "333"))) (RegexConcat (RegexStar (RegexStar (Str2Reg "4"))) (RegexConcat (RegexStar (RegexStar (Str2Reg "555"))) (RegexConcat (RegexPlus (RegexStar (Str2Reg "66"))) (RegexConcat (RegexUnion (RegexPlus (Str2Reg "77")) (RegexPlus (Str2Reg "888"))) (RegexConcat (RegexPlus (RegexUnion (Str2Reg "9") (Str2Reg "aa"))) (RegexConcat (RegexPlus (RegexUnion (Str2Reg "bbb") (Str2Reg "c"))) (RegexConcat (RegexPlus (RegexUnion (Str2Reg "dd") (Str2Reg "e"))) (RegexConcat (RegexStar (RegexUnion (Str2Reg "fff") (Str2Reg "g"))) (RegexConcat (RegexStar (RegexStar (Str2Reg "hh"))) (RegexConcat (RegexStar (RegexPlus (Str2Reg "ii"))) (RegexConcat (RegexStar (RegexStar (Str2Reg "jj"))) (RegexConcat (RegexStar (RegexStar (Str2Reg "k"))) (RegexConcat (RegexPlus (RegexUnion (Str2Reg "l") (Str2Reg "mmm"))) (RegexConcat (RegexUnion (RegexPlus (Str2Reg "nn")) (RegexPlus (Str2Reg "oo"))) (RegexConcat (RegexUnion (RegexUnion (Str2Reg "pp") (Str2Reg "q")) (RegexUnion (Str2Reg "r") (Str2Reg "s"))) (RegexConcat (RegexPlus (RegexUnion (Str2Reg "t") (Str2Reg "uuu"))) (RegexConcat (RegexPlus (RegexStar (Str2Reg "vvv"))) (RegexConcat (RegexUnion (RegexStar (Str2Reg "ww")) (RegexStar (Str2Reg "xx"))) (RegexConcat (RegexPlus (RegexPlus (Str2Reg "yyy"))) (RegexConcat (RegexStar (RegexPlus (Str2Reg "zzz"))) (RegexConcat (RegexPlus (RegexUnion (Str2Reg "A") (Str2Reg "BB"))) (RegexUnion (RegexStar (Str2Reg "C")) (RegexStar (Str2Reg "D")))))))))))))))))))))))))))))
(check-sat)